c Reduced graph for GEOM90a generated by Cyril Grelier
p edge 90 789
e 1 6
e 1 9
e 1 16
e 1 40
e 1 43
e 1 45
e 1 51
e 1 52
e 1 53
e 1 59
e 1 60
e 1 69
e 1 72
e 1 74
e 1 77
e 1 78
e 1 80
e 1 81
e 1 82
e 1 86
e 1 87
e 1 88
e 2 10
e 2 12
e 2 17
e 2 19
e 2 20
e 2 33
e 2 36
e 2 37
e 2 44
e 2 48
e 2 50
e 2 56
e 2 58
e 2 63
e 2 64
e 2 66
e 2 67
e 2 76
e 2 84
e 2 85
e 3 7
e 3 14
e 3 18
e 3 22
e 3 27
e 3 32
e 3 35
e 3 39
e 3 42
e 3 46
e 3 47
e 3 61
e 3 62
e 3 65
e 3 70
e 3 71
e 3 73
e 3 79
e 3 83
e 4 14
e 4 22
e 4 23
e 4 24
e 4 28
e 4 29
e 4 30
e 4 38
e 4 39
e 4 41
e 4 46
e 4 61
e 4 70
e 4 71
e 4 73
e 4 75
e 5 6
e 5 21
e 5 23
e 5 25
e 5 26
e 5 45
e 5 49
e 5 51
e 5 59
e 5 68
e 5 69
e 5 77
e 5 80
e 5 89
e 6 8
e 6 15
e 6 16
e 6 21
e 6 25
e 6 26
e 6 43
e 6 45
e 6 51
e 6 52
e 6 53
e 6 54
e 6 55
e 6 59
e 6 60
e 6 68
e 6 69
e 6 72
e 6 74
e 6 77
e 6 80
e 6 81
e 6 82
e 7 14
e 7 18
e 7 27
e 7 32
e 7 35
e 7 39
e 7 42
e 7 46
e 7 47
e 7 61
e 7 62
e 7 65
e 7 70
e 7 73
e 7 79
e 7 83
e 8 15
e 8 22
e 8 23
e 8 24
e 8 25
e 8 26
e 8 34
e 8 53
e 8 54
e 8 55
e 8 59
e 8 69
e 8 70
e 8 71
e 8 75
e 8 81
e 9 16
e 9 21
e 9 40
e 9 45
e 9 51
e 9 52
e 9 59
e 9 60
e 9 72
e 9 74
e 9 77
e 9 78
e 9 80
e 9 87
e 9 88
e 10 19
e 10 20
e 10 31
e 10 33
e 10 36
e 10 48
e 10 50
e 10 56
e 10 57
e 10 62
e 10 63
e 10 64
e 10 76
e 10 84
e 11 17
e 11 33
e 11 37
e 11 43
e 11 44
e 11 50
e 11 58
e 11 66
e 11 81
e 11 82
e 11 85
e 11 86
e 11 90
e 12 19
e 12 20
e 12 33
e 12 37
e 12 44
e 12 50
e 12 63
e 12 66
e 12 67
e 12 76
e 12 85
e 13 23
e 13 26
e 13 29
e 13 30
e 13 38
e 13 41
e 13 49
e 13 89
e 14 18
e 14 22
e 14 28
e 14 32
e 14 39
e 14 42
e 14 46
e 14 47
e 14 61
e 14 65
e 14 70
e 14 71
e 14 73
e 14 75
e 14 79
e 14 83
e 15 22
e 15 23
e 15 24
e 15 25
e 15 32
e 15 34
e 15 43
e 15 53
e 15 54
e 15 55
e 15 59
e 15 64
e 15 69
e 15 70
e 15 71
e 15 81
e 15 82
e 16 21
e 16 40
e 16 45
e 16 51
e 16 52
e 16 59
e 16 60
e 16 68
e 16 72
e 16 74
e 16 77
e 16 78
e 16 80
e 16 87
e 16 88
e 17 33
e 17 37
e 17 43
e 17 44
e 17 50
e 17 53
e 17 58
e 17 66
e 17 76
e 17 81
e 17 82
e 17 85
e 17 86
e 17 90
e 18 27
e 18 31
e 18 32
e 18 35
e 18 42
e 18 47
e 18 61
e 18 62
e 18 65
e 18 73
e 18 79
e 18 83
e 19 20
e 19 33
e 19 37
e 19 44
e 19 50
e 19 56
e 19 63
e 19 66
e 19 67
e 19 76
e 19 84
e 19 85
e 20 33
e 20 37
e 20 44
e 20 50
e 20 56
e 20 63
e 20 66
e 20 67
e 20 76
e 20 84
e 20 85
e 21 45
e 21 51
e 21 52
e 21 59
e 21 68
e 21 69
e 21 77
e 21 78
e 21 80
e 22 23
e 22 24
e 22 25
e 22 28
e 22 32
e 22 34
e 22 39
e 22 42
e 22 46
e 22 54
e 22 55
e 22 61
e 22 65
e 22 70
e 22 71
e 22 73
e 22 75
e 22 79
e 22 83
e 23 24
e 23 25
e 23 26
e 23 28
e 23 29
e 23 30
e 23 38
e 23 41
e 23 49
e 23 54
e 23 55
e 23 69
e 23 70
e 23 71
e 23 75
e 23 89
e 24 25
e 24 26
e 24 28
e 24 29
e 24 30
e 24 38
e 24 41
e 24 49
e 24 54
e 24 55
e 24 69
e 24 70
e 24 71
e 24 75
e 24 89
e 25 26
e 25 34
e 25 38
e 25 53
e 25 54
e 25 55
e 25 59
e 25 69
e 25 70
e 25 71
e 25 75
e 25 81
e 26 29
e 26 30
e 26 38
e 26 41
e 26 49
e 26 54
e 26 68
e 26 69
e 26 75
e 26 77
e 26 89
e 27 31
e 27 32
e 27 35
e 27 42
e 27 47
e 27 48
e 27 57
e 27 62
e 27 65
e 27 73
e 27 79
e 27 83
e 28 29
e 28 30
e 28 38
e 28 39
e 28 41
e 28 46
e 28 61
e 28 70
e 28 71
e 28 75
e 29 30
e 29 38
e 29 41
e 29 49
e 29 75
e 29 89
e 30 38
e 30 41
e 30 49
e 30 75
e 30 89
e 31 32
e 31 35
e 31 36
e 31 47
e 31 48
e 31 57
e 31 62
e 31 79
e 32 34
e 32 35
e 32 36
e 32 42
e 32 47
e 32 48
e 32 57
e 32 61
e 32 62
e 32 64
e 32 65
e 32 70
e 32 71
e 32 73
e 32 79
e 32 83
e 32 84
e 33 36
e 33 37
e 33 44
e 33 48
e 33 50
e 33 56
e 33 58
e 33 63
e 33 64
e 33 66
e 33 67
e 33 76
e 33 84
e 33 85
e 34 36
e 34 42
e 34 43
e 34 50
e 34 53
e 34 54
e 34 55
e 34 56
e 34 57
e 34 64
e 34 70
e 34 71
e 34 79
e 34 81
e 34 84
e 35 36
e 35 42
e 35 47
e 35 48
e 35 57
e 35 61
e 35 62
e 35 64
e 35 65
e 35 73
e 35 79
e 35 83
e 35 84
e 36 42
e 36 48
e 36 50
e 36 56
e 36 57
e 36 62
e 36 63
e 36 64
e 36 76
e 36 79
e 36 84
e 37 43
e 37 44
e 37 50
e 37 58
e 37 66
e 37 67
e 37 76
e 37 85
e 37 86
e 37 90
e 38 41
e 38 46
e 38 49
e 38 54
e 38 71
e 38 75
e 38 89
e 39 42
e 39 46
e 39 61
e 39 65
e 39 70
e 39 71
e 39 73
e 39 75
e 39 79
e 39 83
e 40 45
e 40 51
e 40 52
e 40 60
e 40 72
e 40 74
e 40 78
e 40 80
e 40 87
e 40 88
e 41 46
e 41 49
e 41 75
e 41 89
e 42 46
e 42 47
e 42 57
e 42 61
e 42 62
e 42 64
e 42 65
e 42 70
e 42 71
e 42 73
e 42 75
e 42 79
e 42 83
e 43 44
e 43 50
e 43 53
e 43 55
e 43 58
e 43 59
e 43 60
e 43 69
e 43 72
e 43 74
e 43 80
e 43 81
e 43 82
e 43 86
e 44 50
e 44 56
e 44 58
e 44 63
e 44 66
e 44 67
e 44 76
e 44 81
e 44 85
e 44 86
e 44 90
e 45 51
e 45 52
e 45 59
e 45 60
e 45 68
e 45 69
e 45 72
e 45 74
e 45 77
e 45 78
e 45 80
e 46 61
e 46 65
e 46 70
e 46 71
e 46 73
e 46 75
e 46 83
e 47 57
e 47 61
e 47 62
e 47 65
e 47 73
e 47 79
e 47 83
e 48 56
e 48 57
e 48 62
e 48 63
e 48 64
e 48 76
e 48 79
e 48 84
e 49 89
e 50 56
e 50 58
e 50 63
e 50 64
e 50 66
e 50 67
e 50 76
e 50 81
e 50 84
e 50 85
e 51 52
e 51 59
e 51 60
e 51 68
e 51 69
e 51 72
e 51 74
e 51 77
e 51 78
e 51 80
e 51 82
e 51 87
e 51 88
e 52 59
e 52 60
e 52 68
e 52 72
e 52 74
e 52 77
e 52 78
e 52 80
e 52 82
e 52 87
e 52 88
e 53 54
e 53 55
e 53 59
e 53 60
e 53 69
e 53 72
e 53 74
e 53 77
e 53 80
e 53 81
e 53 82
e 54 55
e 54 59
e 54 69
e 54 70
e 54 71
e 54 75
e 54 81
e 55 59
e 55 60
e 55 69
e 55 71
e 55 81
e 55 82
e 56 57
e 56 62
e 56 63
e 56 64
e 56 76
e 56 84
e 57 62
e 57 63
e 57 64
e 57 79
e 57 84
e 58 66
e 58 67
e 58 76
e 58 85
e 58 86
e 58 90
e 59 60
e 59 68
e 59 69
e 59 72
e 59 74
e 59 77
e 59 80
e 59 81
e 59 82
e 60 69
e 60 72
e 60 74
e 60 77
e 60 78
e 60 80
e 60 81
e 60 82
e 60 86
e 60 87
e 61 65
e 61 70
e 61 71
e 61 73
e 61 75
e 61 79
e 61 83
e 62 64
e 62 73
e 62 79
e 62 83
e 62 84
e 63 64
e 63 66
e 63 67
e 63 76
e 63 84
e 63 85
e 64 76
e 64 79
e 64 84
e 65 70
e 65 73
e 65 79
e 65 83
e 66 67
e 66 76
e 66 85
e 66 90
e 67 76
e 67 85
e 68 69
e 68 77
e 68 80
e 69 72
e 69 74
e 69 77
e 69 80
e 69 81
e 69 82
e 70 71
e 70 73
e 70 75
e 70 79
e 70 83
e 71 73
e 71 75
e 71 79
e 71 83
e 72 74
e 72 78
e 72 80
e 72 81
e 72 82
e 72 86
e 72 87
e 72 88
e 73 75
e 73 79
e 73 83
e 74 77
e 74 78
e 74 80
e 74 82
e 74 86
e 74 87
e 74 88
e 76 84
e 76 85
e 77 80
e 77 82
e 78 80
e 78 87
e 78 88
e 79 83
e 80 81
e 80 82
e 80 87
e 80 88
e 81 82
e 81 86
e 82 86
e 85 90
e 86 90
e 87 88
